NAME: Tnm88
COMMENT: Recalculated optimal tour for Tnm88, using concorde got a tour of length 1172734.0
TYPE: TOUR
DIMENSION: 88
TOUR_SECTION:
1
68
4
7
71
74
10
13
16
19
22
25
28
31
34
37
40
43
46
49
52
55
58
69
61
64
2
5
8
11
72
75
78
81
84
14
17
20
23
26
29
32
35
38
41
44
47
50
53
73
70
56
59
67
62
65
3
6
9
12
15
18
21
24
27
30
33
76
79
82
85
88
87
86
83
80
77
36
39
42
45
48
51
54
57
60
63
66 
-1
EOF
